3 10
78 110 123 
0 40 38 51 57 83 75 13 70 62 74 99 48 3
1 33 43 72 77 19 12 44 48 89 84 27 32 1
2 51 53 26 23 90 94 45 29 7 43 20 71 3
3 53 50 89 96 48 51 4 5 21 73 41 2 2
4 72 71 26 21 72 72 2 55 30 8 99 59 2
5 78 76 25 31 72 77 20 60 91 43 28 60 2
6 52 44 60 70 102 97 34 72 77 34 32 69 3
7 6 6 46 45 76 83 45 10 90 21 43 90 3
8 12 4 68 70 40 45 31 77 15 93 11 63 3
9 1 9 65 63 8 10 67 27 77 68 14 92 1
